(set-info :smt-lib-version 2.6)
(set-logic QF_S)
(set-info :source |
Generated by: Oliver Markgraf, Hongjian Jiang, Daniel Stan, Anthony W. Lin, Philipp Ruemmer
Generated on: 2025-04-08
Application: Using String Solvers to solve RMC problems encoded as CHC over Strings
Target solver: cvc5, OSTRICH, Z3, Z3alpha, Z3-noodler
Time limit: 60.0
Benchmarks are extracted by running HornStr https://arg-git.informatik.uni-kl.de/pub/string-chc-lib on all benchmarks
provided in the repository and gathering the string queries sent to the string solvers.
|)
(set-info :license "https://creativecommons.org/licenses/by/4.0/")
(set-info :category "industrial")
(set-info :status unknown)
(declare-fun varout () String)
(assert (let ((a!1 (re.union (re.union (re.union (str.to_re "F") (str.to_re "B"))
                               (str.to_re "D"))
                     (str.to_re "E"))))
(let ((a!2 (re.* (re.union (re.union a!1 (str.to_re "C")) (str.to_re "A")))))
  (str.in_re varout a!2))))
(declare-fun varin () String)
(assert (let ((a!1 (re.union (re.union (re.union (str.to_re "F") (str.to_re "B"))
                               (str.to_re "D"))
                     (str.to_re "E"))))
(let ((a!2 (re.* (re.union (re.union a!1 (str.to_re "C")) (str.to_re "A")))))
  (str.in_re varin a!2))))
(declare-fun X () String)
(declare-fun isin () Bool)
(declare-fun isout () Bool)
(assert (let ((a!1 (re.union (str.to_re "")
                     (re.++ (str.to_re "B") (re.* (str.to_re "B"))))))
(let ((a!2 (re.++ (re.++ (str.to_re "A") (str.to_re "B"))
                  (re.++ (re.* (str.to_re "B")) a!1))))
  (or (and (str.in_re X a!2) (not isin) (= X varout) isout)))))
(assert (str.in_re varout re.none))
(check-sat)
(exit)
